nTasks=4;
nThreads=11;
nCPUs=3;
nCores=7;
rh=[636.72562943 502.099692676 865.098079626 540.969699021 877.985654904 113.05227063 350.991602722 733.575370425 966.086253478 232.878391856 996.812701693];
rc=[770.514149107 540.100387705 419.977975843];
CK=[
	[1 1 1 1 0 0 0]
	[0 0 0 0 1 0 0]
	[0 0 0 0 0 1 1]
];
TH=[
	[1 1 1 0 0 0 0 0 0 0 0]
	[0 0 0 1 1 0 0 0 0 0 0]
	[0 0 0 0 0 1 1 1 1 0 0]
	[0 0 0 0 0 0 0 0 0 1 1]
];
